(set-info :smt-lib-version 2.6)
(set-logic UFLIA)
(set-info :source |
Generated by: Geoff Sutcliffe
Generated on: 2026-03-11
Generator: TPTPWorld
Application: Benchmarking automated theorem provers
Time limit: 120.0

These benchmarks are translations from the TPTP Library (Thousands of
Problems for Theorem Provers), see http://www.cs.miami.edu/~tptp/

The TPTP is maintained by Geoff Sutcliffe, and he contributed this
selection of benchmarks to SMT-LIB.  They were exported from the
v9.2.1 realease of TPTP.
|)
(set-info :category "industrial")
(set-info :status "unknown")
; SZS status Success
(declare-sort $$unsorted 0)
(declare-fun tptp.f (Int) Int)
(assert (let ((_let_1 (tptp.f 5))) (let ((_let_2 (tptp.f 4))) (let ((_let_3 (tptp.f 3))) (not (=> (and (forall ((X Int) (Y Int)) (=> (= (tptp.f X) (tptp.f Y)) (= X Y))) (< 6 _let_3) (< _let_3 9) (< 6 _let_2) (< _let_2 9)) (or (<= _let_1 6) (<= 9 _let_1))))))))
(check-sat)
